
Gurobi 10.0.1 (win64) logging started Tue May  2 09:04:01 2023

Set parameter LogFile to value "logFiles/N-1L-C/N-1L-14U-34F-23V-365D-charterout.log"
Gurobi Optimizer version 10.0.1 build v10.0.1rc0 (win64)

CPU model: Intel(R) Core(TM) i7-10700 CPU @ 2.90GHz, instruction set [SSE2|AVX|AVX2]
Thread count: 8 physical cores, 16 logical processors, using up to 16 threads

Optimize a model with 424272 rows, 3560081 columns and 44891944 nonzeros
Model fingerprint: 0x1233205c
Variable types: 9882 continuous, 3550199 integer (3550199 binary)
Coefficient statistics:
  Matrix range     [1e+00, 2e+05]
  Objective range  [4e+01, 3e+07]
  Bounds range     [1e+00, 1e+00]
  RHS range        [1e+00, 5e+06]
Presolve removed 145273 rows and 52109 columns (presolve time = 5s) ...
Presolve removed 147113 rows and 54432 columns (presolve time = 10s) ...
Presolve removed 147114 rows and 54432 columns (presolve time = 15s) ...
Presolve removed 147114 rows and 54432 columns (presolve time = 20s) ...
Presolve removed 147114 rows and 54432 columns (presolve time = 25s) ...
Presolve removed 154716 rows and 197231 columns (presolve time = 30s) ...
Presolve removed 161270 rows and 197231 columns (presolve time = 35s) ...
Presolve removed 285429 rows and 201811 columns (presolve time = 40s) ...
Presolve removed 285454 rows and 201877 columns (presolve time = 45s) ...
Presolve removed 285467 rows and 201877 columns
Presolve time: 46.64s

Explored 0 nodes (0 simplex iterations) in 60.44 seconds (113.89 work units)
Thread count was 1 (of 16 available processors)

Solution count 0

Time limit reached
Best objective -, best bound -, gap -
IIS computation: initial model status unknown, solving to determine model status
Presolve removed 145273 rows and 52477 columns (presolve time = 5s) ...
Presolve removed 147113 rows and 54432 columns (presolve time = 10s) ...
Presolve removed 147114 rows and 54432 columns (presolve time = 15s) ...
Presolve removed 147114 rows and 54432 columns (presolve time = 20s) ...
Presolve removed 147114 rows and 54432 columns (presolve time = 25s) ...
Presolve removed 154800 rows and 200021 columns (presolve time = 30s) ...
Presolve removed 161352 rows and 200021 columns (presolve time = 35s) ...
Presolve removed 288278 rows and 204623 columns (presolve time = 40s) ...
Presolve removed 288303 rows and 204650 columns
Presolve time: 44.78s

Explored 0 nodes (0 simplex iterations) in 60.13 seconds (102.74 work units)
Thread count was 1 (of 16 available processors)

Solution count 0

Time limit reached
Best objective -, best bound -, gap -
IIS runtime: 60.26 seconds (102.74 work units)
